NAME : eil31
COMMENT : Clarke and Wright, 1963; Eilon, Watson-Gandy and Christofides, 1971
TYPE : CVRP
DIMENSION : 31
EDGE_WEIGHT_TYPE : EXPLICIT
CAPACITY : 140
NODE_COORD_SECTION
1 41 38
2 80 80
3 97 92
4 96 78
5 98 87
6 95 77
7 93 91
8 98 96
9 40 73
10 82 55
11 52 76
12 76 76
13 72 98
14 98 93
15 89 68
16 54 54
17 64 59
18 56 39
19 59 52
20 58 38
21 55 52
22 58 59
23 5 34
24 48 16
25 16 46
26 44 50
27 33 58
28 58 66
29 55 32
30 56 56
31 67 62
DEMAND_SECTION
1 0
2 24
3 34
4 11
5 15
6 11
7 1
8 3
9 29
10 6
11 25
12 6
13 25
14 2
15 28
16 8
17 10
18 18
19 45
20 33
21 17
22 9
23 16
24 35
25 5
26 60
27 80
28 39
29 95
30 90
31 123
DEPOT_SECTION
1
-1
EOF
